certificates/rado_a6_c256_N42.cnf
c Rad2 upper bound instance: x1 + 6*x2 - x3 = 256, interval [1,42]
p cnf 42 280
1 5 42 0
-1 -5 -42 0
2 6 42 0
-2 -6 -42 0
3 7 42 0
-3 -7 -42 0
4 8 42 0
-4 -8 -42 0
5 9 42 0
-5 -9 -42 0
6 10 42 0
-6 -10 -42 0
1 11 41 0
-1 -11 -41 0
7 11 42 0
-7 -11 -42 0
2 12 41 0
-2 -12 -41 0
8 12 42 0
-8 -12 -42 0
3 13 41 0
-3 -13 -41 0
9 13 42 0
-9 -13 -42 0
4 14 41 0
-4 -14 -41 0
10 14 42 0
-10 -14 -42 0
5 15 41 0
-5 -15 -41 0
11 15 42 0
-11 -15 -42 0
6 16 41 0
-6 -16 -41 0
12 16 42 0
-12 -16 -42 0
1 17 40 0
-1 -17 -40 0
7 17 41 0
-7 -17 -41 0
13 17 42 0
-13 -17 -42 0
2 18 40 0
-2 -18 -40 0
8 18 41 0
-8 -18 -41 0
14 18 42 0
-14 -18 -42 0
3 19 40 0
-3 -19 -40 0
9 19 41 0
-9 -19 -41 0
15 19 42 0
-15 -19 -42 0
4 20 40 0
-4 -20 -40 0
10 20 41 0
-10 -20 -41 0
16 20 42 0
-16 -20 -42 0
5 21 40 0
-5 -21 -40 0
11 21 41 0
-11 -21 -41 0
17 21 42 0
-17 -21 -42 0
6 22 40 0
-6 -22 -40 0
12 22 41 0
-12 -22 -41 0
18 22 42 0
-18 -22 -42 0
1 23 39 0
-1 -23 -39 0
7 23 40 0
-7 -23 -40 0
13 23 41 0
-13 -23 -41 0
19 23 42 0
-19 -23 -42 0
2 24 39 0
-2 -24 -39 0
8 24 40 0
-8 -24 -40 0
14 24 41 0
-14 -24 -41 0
20 24 42 0
-20 -24 -42 0
3 25 39 0
-3 -25 -39 0
9 25 40 0
-9 -25 -40 0
15 25 41 0
-15 -25 -41 0
21 25 42 0
-21 -25 -42 0
4 26 39 0
-4 -26 -39 0
10 26 40 0
-10 -26 -40 0
16 26 41 0
-16 -26 -41 0
22 26 42 0
-22 -26 -42 0
5 27 39 0
-5 -27 -39 0
11 27 40 0
-11 -27 -40 0
17 27 41 0
-17 -27 -41 0
23 27 42 0
-23 -27 -42 0
6 28 39 0
-6 -28 -39 0
12 28 40 0
-12 -28 -40 0
18 28 41 0
-18 -28 -41 0
24 28 42 0
-24 -28 -42 0
1 29 38 0
-1 -29 -38 0
7 29 39 0
-7 -29 -39 0
13 29 40 0
-13 -29 -40 0
19 29 41 0
-19 -29 -41 0
25 29 42 0
-25 -29 -42 0
2 30 38 0
-2 -30 -38 0
8 30 39 0
-8 -30 -39 0
14 30 40 0
-14 -30 -40 0
20 30 41 0
-20 -30 -41 0
26 30 42 0
-26 -30 -42 0
3 31 38 0
-3 -31 -38 0
9 31 39 0
-9 -31 -39 0
15 31 40 0
-15 -31 -40 0
21 31 41 0
-21 -31 -41 0
27 31 42 0
-27 -31 -42 0
4 32 38 0
-4 -32 -38 0
10 32 39 0
-10 -32 -39 0
16 32 40 0
-16 -32 -40 0
22 32 41 0
-22 -32 -41 0
28 32 42 0
-28 -32 -42 0
5 33 38 0
-5 -33 -38 0
11 33 39 0
-11 -33 -39 0
17 33 40 0
-17 -33 -40 0
23 33 41 0
-23 -33 -41 0
29 33 42 0
-29 -33 -42 0
6 34 38 0
-6 -34 -38 0
12 34 39 0
-12 -34 -39 0
18 34 40 0
-18 -34 -40 0
24 34 41 0
-24 -34 -41 0
30 34 42 0
-30 -34 -42 0
1 35 37 0
-1 -35 -37 0
7 35 38 0
-7 -35 -38 0
13 35 39 0
-13 -35 -39 0
19 35 40 0
-19 -35 -40 0
25 35 41 0
-25 -35 -41 0
31 35 42 0
-31 -35 -42 0
2 36 37 0
-2 -36 -37 0
8 36 38 0
-8 -36 -38 0
14 36 39 0
-14 -36 -39 0
20 36 40 0
-20 -36 -40 0
26 36 41 0
-26 -36 -41 0
32 36 42 0
-32 -36 -42 0
3 37 0
-3 -37 0
9 37 38 0
-9 -37 -38 0
15 37 39 0
-15 -37 -39 0
21 37 40 0
-21 -37 -40 0
27 37 41 0
-27 -37 -41 0
33 37 42 0
-33 -37 -42 0
4 37 38 0
-4 -37 -38 0
10 38 0
-10 -38 0
16 38 39 0
-16 -38 -39 0
22 38 40 0
-22 -38 -40 0
28 38 41 0
-28 -38 -41 0
34 38 42 0
-34 -38 -42 0
5 37 39 0
-5 -37 -39 0
11 38 39 0
-11 -38 -39 0
17 39 0
-17 -39 0
23 39 40 0
-23 -39 -40 0
29 39 41 0
-29 -39 -41 0
35 39 42 0
-35 -39 -42 0
6 37 40 0
-6 -37 -40 0
12 38 40 0
-12 -38 -40 0
18 39 40 0
-18 -39 -40 0
24 40 0
-24 -40 0
30 40 41 0
-30 -40 -41 0
36 40 42 0
-36 -40 -42 0
1 36 41 0
-1 -36 -41 0
7 37 41 0
-7 -37 -41 0
13 38 41 0
-13 -38 -41 0
19 39 41 0
-19 -39 -41 0
25 40 41 0
-25 -40 -41 0
31 41 0
-31 -41 0
37 41 42 0
-37 -41 -42 0
2 36 42 0
-2 -36 -42 0
8 37 42 0
-8 -37 -42 0
14 38 42 0
-14 -38 -42 0
20 39 42 0
-20 -39 -42 0
26 40 42 0
-26 -40 -42 0
32 41 42 0
-32 -41 -42 0
38 42 0
-38 -42 0
