certificates/rado_a6_c256_N42.drat
-42 0
38 0
-10 0
6 0
14 0
-34 0
30 0
-2 0
-40 0
36 0
24 0
26 0
18 0
-8 0
-39 0
-41 0
4 0
12 0
37 0
17 0
23 0
29 0
35 0
19 0
20 0
32 0
31 0
25 0
0
